33D32945 STP File, STP Format Version 1.0

SECTION Comment
Name "i640-131-PCST"
Creator "Indaco Biazzo" 
Remark "derived from Incidence graph by Cees Duin"
END

SECTION Graph
Nodes 640
Edges 1280
E 1 14 302.000000
E 1 31 206.000000
E 1 286 195.000000
E 1 348 199.000000
E 1 401 195.000000
E 1 427 203.000000
E 1 584 207.000000
E 1 615 198.000000
E 2 140 199.000000
E 2 467 196.000000
E 2 544 185.000000
E 2 578 197.000000
E 3 241 195.000000
E 3 398 194.000000
E 4 308 207.000000
E 4 596 199.000000
E 5 124 208.000000
E 5 521 196.000000
E 5 631 194.000000
E 6 33 203.000000
E 6 142 199.000000
E 6 346 200.000000
E 6 410 197.000000
E 7 163 199.000000
E 7 411 196.000000
E 7 532 194.000000
E 8 16 304.000000
E 8 65 194.000000
E 8 238 198.000000
E 8 272 199.000000
E 8 286 188.000000
E 8 418 206.000000
E 9 99 215.000000
E 9 214 199.000000
E 9 498 198.000000
E 10 73 199.000000
E 10 231 202.000000
E 10 469 206.000000
E 11 175 205.000000
E 11 577 199.000000
E 12 434 193.000000
E 12 445 196.000000
E 12 475 200.000000
E 13 531 203.000000
E 13 565 200.000000
E 14 86 196.000000
E 14 133 192.000000
E 14 363 207.000000
E 15 70 201.000000
E 15 250 207.000000
E 15 257 195.000000
E 15 313 198.000000
E 15 459 197.000000
E 15 474 204.000000
E 15 509 194.000000
E 15 598 208.000000
E 15 603 193.000000
E 15 619 201.000000
E 16 59 193.000000
E 16 169 202.000000
E 16 192 200.000000
E 17 329 201.000000
E 17 339 190.000000
E 18 29 199.000000
E 18 33 193.000000
E 18 337 194.000000
E 18 426 196.000000
E 19 44 204.000000
E 19 324 197.000000
E 20 234 189.000000
E 20 518 193.000000
E 20 626 196.000000
E 21 56 208.000000
E 21 373 201.000000
E 21 485 194.000000
E 21 523 200.000000
E 21 596 202.000000
E 22 49 201.000000
E 22 73 203.000000
E 22 305 190.000000
E 22 320 199.000000
E 22 550 204.000000
E 23 123 200.000000
E 23 130 205.000000
E 23 181 197.000000
E 23 351 198.000000
E 23 527 199.000000
E 24 91 198.000000
E 24 465 193.000000
E 24 524 199.000000
E 24 589 203.000000
E 24 640 201.000000
E 25 49 204.000000
E 25 460 210.000000
E 25 624 201.000000
E 26 125 99.000000
E 26 161 99.000000
E 26 235 99.000000
E 26 506 96.000000
E 27 31 108.000000
E 28 78 100.000000
E 28 127 100.000000
E 28 444 96.000000
E 28 472 102.000000
E 29 254 100.000000
E 29 505 93.000000
E 29 564 102.000000
E 30 247 101.000000
E 30 321 101.000000
E 30 331 103.000000
E 30 423 102.000000
E 30 603 97.000000
E 31 113 100.000000
E 31 135 99.000000
E 31 245 99.000000
E 31 312 104.000000
E 31 345 104.000000
E 31 354 102.000000
E 31 460 110.000000
E 31 496 102.000000
E 31 517 94.000000
E 32 460 95.000000
E 32 609 97.000000
E 32 617 95.000000
E 33 114 94.000000
E 33 180 98.000000
E 34 122 106.000000
E 34 243 103.000000
E 34 468 94.000000
E 34 470 106.000000
E 35 173 92.000000
E 35 306 108.000000
E 35 331 91.000000
E 36 237 97.000000
E 36 452 98.000000
E 37 140 100.000000
E 37 277 101.000000
E 37 395 96.000000
E 37 468 97.000000
E 37 549 100.000000
E 38 373 100.000000
E 38 495 98.000000
E 38 579 97.000000
E 39 53 104.000000
E 39 390 96.000000
E 39 545 104.000000
E 40 43 105.000000
E 41 275 101.000000
E 41 346 105.000000
E 41 503 102.000000
E 41 543 99.000000
E 42 591 105.000000
E 43 52 100.000000
E 43 320 101.000000
E 43 362 98.000000
E 43 397 96.000000
E 43 481 95.000000
E 43 552 98.000000
E 44 373 100.000000
E 44 473 99.000000
E 44 578 105.000000
E 45 143 101.000000
E 45 255 104.000000
E 46 89 101.000000
E 46 316 97.000000
E 46 520 98.000000
E 47 91 93.000000
E 47 104 98.000000
E 47 167 101.000000
E 47 190 109.000000
E 47 223 97.000000
E 47 239 100.000000
E 47 251 96.000000
E 47 347 106.000000
E 48 49 88.000000
E 48 203 94.000000
E 48 241 97.000000
E 49 82 101.000000
E 49 331 99.000000
E 49 515 102.000000
E 49 602 96.000000
E 50 134 101.000000
E 50 345 103.000000
E 50 357 104.000000
E 50 399 95.000000
E 50 617 103.000000
E 51 179 103.000000
E 51 224 93.000000
E 51 383 108.000000
E 51 494 98.000000
E 51 508 94.000000
E 52 142 95.000000
E 52 148 102.000000
E 52 159 95.000000
E 52 505 95.000000
E 52 600 96.000000
E 53 226 102.000000
E 53 299 98.000000
E 53 465 95.000000
E 54 181 106.000000
E 54 372 94.000000
E 55 221 99.000000
E 55 364 95.000000
E 55 514 98.000000
E 56 223 99.000000
E 56 402 96.000000
E 56 535 107.000000
E 57 176 105.000000
E 57 457 96.000000
E 57 598 105.000000
E 58 379 104.000000
E 58 381 98.000000
E 58 523 108.000000
E 59 312 98.000000
E 59 356 101.000000
E 59 625 88.000000
E 60 447 102.000000
E 60 549 93.000000
E 60 551 95.000000
E 60 627 96.000000
E 61 213 90.000000
E 61 503 103.000000
E 61 597 95.000000
E 61 601 109.000000
E 62 159 98.000000
E 62 234 102.000000
E 62 559 100.000000
E 62 560 91.000000
E 63 356 98.000000
E 63 433 92.000000
E 64 254 95.000000
E 64 311 101.000000
E 64 324 104.000000
E 64 601 95.000000
E 64 636 92.000000
E 65 230 109.000000
E 65 268 100.000000
E 65 419 101.000000
E 65 611 102.000000
E 66 367 98.000000
E 66 401 99.000000
E 66 555 97.000000
E 66 589 95.000000
E 66 628 97.000000
E 67 255 100.000000
E 67 511 105.000000
E 67 555 102.000000
E 67 629 94.000000
E 68 122 97.000000
E 68 152 95.000000
E 68 251 107.000000
E 68 314 94.000000
E 68 486 99.000000
E 69 152 88.000000
E 69 209 102.000000
E 69 233 94.000000
E 69 272 101.000000
E 69 329 96.000000
E 69 613 97.000000
E 70 82 102.000000
E 70 435 97.000000
E 71 504 99.000000
E 71 528 111.000000
E 71 564 103.000000
E 72 166 102.000000
E 72 272 98.000000
E 72 280 102.000000
E 72 346 100.000000
E 73 119 101.000000
E 73 222 106.000000
E 73 234 99.000000
E 73 295 103.000000
E 73 326 96.000000
E 73 373 99.000000
E 73 421 92.000000
E 73 490 104.000000
E 73 515 100.000000
E 73 516 106.000000
E 74 272 94.000000
E 75 399 108.000000
E 76 220 98.000000
E 76 386 102.000000
E 76 492 95.000000
E 77 95 93.000000
E 77 350 96.000000
E 77 395 98.000000
E 77 563 100.000000
E 77 575 99.000000
E 77 584 99.000000
E 78 121 93.000000
E 78 175 108.000000
E 78 352 98.000000
E 79 148 92.000000
E 79 178 93.000000
E 79 505 102.000000
E 79 537 100.000000
E 79 612 94.000000
E 80 93 100.000000
E 80 133 90.000000
E 80 247 94.000000
E 80 383 96.000000
E 80 409 98.000000
E 80 602 94.000000
E 81 375 99.000000
E 81 540 96.000000
E 82 233 97.000000
E 82 360 97.000000
E 83 137 100.000000
E 83 232 101.000000
E 83 545 93.000000
E 84 416 96.000000
E 85 154 105.000000
E 85 193 97.000000
E 85 364 103.000000
E 85 575 97.000000
E 85 616 91.000000
E 86 262 100.000000
E 87 235 95.000000
E 88 470 98.000000
E 88 511 98.000000
E 88 515 100.000000
E 88 547 108.000000
E 89 143 99.000000
E 89 243 90.000000
E 89 625 107.000000
E 90 307 95.000000
E 90 391 96.000000
E 90 604 99.000000
E 91 231 105.000000
E 91 254 87.000000
E 91 568 92.000000
E 92 112 102.000000
E 92 151 100.000000
E 92 169 107.000000
E 92 277 96.000000
E 92 353 97.000000
E 92 628 100.000000
E 93 391 97.000000
E 94 154 103.000000
E 94 191 104.000000
E 95 163 105.000000
E 95 178 100.000000
E 95 543 94.000000
E 96 174 99.000000
E 96 219 103.000000
E 97 138 102.000000
E 97 342 99.000000
E 97 443 98.000000
E 97 491 101.000000
E 97 553 106.000000
E 98 161 93.000000
E 98 519 106.000000
E 98 538 89.000000
E 99 306 96.000000
E 99 363 98.000000
E 99 558 101.000000
E 100 166 98.000000
E 100 352 89.000000
E 100 381 109.000000
E 101 132 94.000000
E 101 162 94.000000
E 101 333 99.000000
E 101 624 104.000000
E 102 210 104.000000
E 102 222 106.000000
E 102 573 100.000000
E 102 620 95.000000
E 103 143 99.000000
E 103 202 105.000000
E 103 605 89.000000
E 104 324 106.000000
E 105 465 91.000000
E 105 484 92.000000
E 106 253 99.000000
E 106 383 98.000000
E 106 401 104.000000
E 106 516 101.000000
E 106 551 101.000000
E 107 116 96.000000
E 107 208 97.000000
E 107 263 95.000000
E 108 127 96.000000
E 108 293 113.000000
E 108 472 104.000000
E 108 524 93.000000
E 108 538 100.000000
E 108 607 104.000000
E 109 230 99.000000
E 109 340 100.000000
E 109 343 101.000000
E 109 415 99.000000
E 110 150 109.000000
E 110 448 106.000000
E 110 495 107.000000
E 110 583 91.000000
E 111 150 95.000000
E 111 171 101.000000
E 112 225 95.000000
E 112 315 100.000000
E 112 471 102.000000
E 113 128 92.000000
E 113 244 90.000000
E 113 391 89.000000
E 113 433 97.000000
E 113 448 104.000000
E 113 626 99.000000
E 114 455 105.000000
E 115 309 99.000000
E 115 595 98.000000
E 116 126 103.000000
E 116 159 101.000000
E 117 235 109.000000
E 117 616 105.000000
E 118 205 98.000000
E 118 260 102.000000
E 118 429 100.000000
E 118 450 95.000000
E 119 226 97.000000
E 119 549 106.000000
E 119 575 105.000000
E 119 595 92.000000
E 120 437 92.000000
E 121 369 107.000000
E 121 460 92.000000
E 122 359 100.000000
E 122 371 93.000000
E 122 631 103.000000
E 123 431 91.000000
E 124 175 92.000000
E 124 631 103.000000
E 125 216 97.000000
E 125 394 93.000000
E 125 411 98.000000
E 125 440 97.000000
E 125 508 96.000000
E 125 570 98.000000
E 127 214 108.000000
E 127 300 95.000000
E 128 204 104.000000
E 128 368 93.000000
E 128 627 94.000000
E 129 163 107.000000
E 129 320 101.000000
E 129 325 106.000000
E 129 412 102.000000
E 129 604 97.000000
E 130 162 89.000000
E 130 367 92.000000
E 130 607 104.000000
E 131 403 100.000000
E 131 446 101.000000
E 131 530 106.000000
E 132 203 105.000000
E 132 581 95.000000
E 133 290 108.000000
E 133 634 92.000000
E 134 225 95.000000
E 134 404 95.000000
E 135 474 89.000000
E 135 543 100.000000
E 136 442 99.000000
E 136 468 110.000000
E 137 153 98.000000
E 137 465 99.000000
E 137 511 97.000000
E 137 547 99.000000
E 138 637 100.000000
E 139 171 93.000000
E 139 222 97.000000
E 139 254 105.000000
E 139 502 107.000000
E 140 269 100.000000
E 141 408 95.000000
E 141 619 94.000000
E 141 629 92.000000
E 142 235 99.000000
E 142 333 93.000000
E 142 376 97.000000
E 142 489 91.000000
E 142 548 94.000000
E 143 212 104.000000
E 143 332 98.000000
E 143 363 102.000000
E 143 374 111.000000
E 143 466 95.000000
E 143 532 105.000000
E 144 567 104.000000
E 144 597 98.000000
E 144 599 104.000000
E 145 186 102.000000
E 145 585 91.000000
E 145 586 98.000000
E 145 617 101.000000
E 146 147 91.000000
E 146 399 109.000000
E 146 536 98.000000
E 147 542 97.000000
E 148 229 104.000000
E 148 321 93.000000
E 148 377 87.000000
E 148 500 97.000000
E 148 588 92.000000
E 149 218 94.000000
E 149 530 93.000000
E 150 435 107.000000
E 150 480 107.000000
E 150 608 94.000000
E 151 169 100.000000
E 151 185 99.000000
E 151 571 98.000000
E 151 592 102.000000
E 152 317 96.000000
E 153 251 94.000000
E 153 449 106.000000
E 154 221 98.000000
E 154 305 101.000000
E 155 231 93.000000
E 155 364 104.000000
E 156 195 102.000000
E 156 244 107.000000
E 156 303 98.000000
E 156 422 107.000000
E 156 492 94.000000
E 157 485 109.000000
E 157 486 97.000000
E 158 328 106.000000
E 158 450 94.000000
E 159 293 99.000000
E 159 345 105.000000
E 160 172 102.000000
E 160 199 96.000000
E 160 337 95.000000
E 160 354 102.000000
E 160 384 102.000000
E 160 514 112.000000
E 160 625 99.000000
E 161 225 101.000000
E 161 500 106.000000
E 162 350 97.000000
E 162 384 100.000000
E 162 451 92.000000
E 162 604 97.000000
E 163 232 108.000000
E 164 179 88.000000
E 164 260 101.000000
E 164 277 95.000000
E 164 384 104.000000
E 164 467 97.000000
E 165 290 95.000000
E 165 298 97.000000
E 165 358 93.000000
E 165 416 104.000000
E 165 436 91.000000
E 165 458 109.000000
E 165 568 102.000000
E 165 580 106.000000
E 166 405 99.000000
E 167 204 96.000000
E 167 316 109.000000
E 167 327 106.000000
E 168 319 88.000000
E 168 336 101.000000
E 168 599 102.000000
E 169 197 108.000000
E 169 298 106.000000
E 169 621 99.000000
E 170 175 100.000000
E 170 343 106.000000
E 170 457 104.000000
E 170 597 95.000000
E 171 358 96.000000
E 171 588 102.000000
E 172 453 104.000000
E 173 501 99.000000
E 174 326 91.000000
E 174 599 98.000000
E 174 614 96.000000
E 175 439 97.000000
E 175 638 103.000000
E 176 367 96.000000
E 176 414 98.000000
E 176 456 101.000000
E 176 566 97.000000
E 177 189 100.000000
E 177 567 90.000000
E 178 215 102.000000
E 178 236 100.000000
E 178 252 101.000000
E 178 578 96.000000
E 178 631 100.000000
E 181 274 98.000000
E 181 514 96.000000
E 181 577 91.000000
E 182 199 99.000000
E 183 383 106.000000
E 183 441 107.000000
E 183 533 104.000000
E 183 565 96.000000
E 184 205 103.000000
E 184 227 100.000000
E 184 232 88.000000
E 184 254 103.000000
E 184 639 103.000000
E 185 216 105.000000
E 185 467 98.000000
E 186 526 108.000000
E 186 553 104.000000
E 186 584 102.000000
E 186 605 102.000000
E 187 233 91.000000
E 187 336 108.000000
E 188 264 103.000000
E 188 286 104.000000
E 188 425 89.000000
E 188 513 101.000000
E 188 521 101.000000
E 189 561 101.000000
E 189 607 97.000000
E 190 444 117.000000
E 190 492 97.000000
E 190 562 96.000000
E 191 612 98.000000
E 192 485 104.000000
E 193 194 100.000000
E 193 307 103.000000
E 194 555 96.000000
E 195 257 94.000000
E 195 466 97.000000
E 195 571 96.000000
E 195 576 101.000000
E 196 278 108.000000
E 196 370 106.000000
E 197 303 92.000000
E 197 363 102.000000
E 197 403 96.000000
E 198 355 101.000000
E 198 372 96.000000
E 198 605 97.000000
E 199 638 98.000000
E 200 287 104.000000
E 200 583 105.000000
E 201 282 107.000000
E 201 331 109.000000
E 201 568 106.000000
E 201 617 101.000000
E 202 377 92.000000
E 202 487 112.000000
E 203 238 95.000000
E 203 465 105.000000
E 203 561 95.000000
E 204 225 100.000000
E 204 305 103.000000
E 204 318 105.000000
E 204 381 99.000000
E 204 487 110.000000
E 204 519 102.000000
E 205 273 98.000000
E 205 422 103.000000
E 206 457 102.000000
E 207 368 104.000000
E 207 485 106.000000
E 208 420 96.000000
E 210 472 102.000000
E 210 592 99.000000
E 211 453 105.000000
E 211 602 105.000000
E 212 322 90.000000
E 212 395 96.000000
E 213 458 91.000000
E 213 460 99.000000
E 213 621 99.000000
E 215 585 97.000000
E 217 316 102.000000
E 217 524 100.000000
E 218 430 100.000000
E 219 338 97.000000
E 219 413 91.000000
E 219 416 100.000000
E 219 453 104.000000
E 219 583 107.000000
E 219 626 106.000000
E 220 258 95.000000
E 220 512 105.000000
E 221 323 110.000000
E 221 602 103.000000
E 222 331 101.000000
E 222 619 101.000000
E 222 628 104.000000
E 223 540 106.000000
E 223 548 102.000000
E 223 549 100.000000
E 223 600 99.000000
E 223 621 100.000000
E 224 229 106.000000
E 224 261 104.000000
E 224 485 104.000000
E 225 250 97.000000
E 225 291 101.000000
E 225 322 98.000000
E 225 326 100.000000
E 225 334 99.000000
E 225 616 104.000000
E 226 495 104.000000
E 227 364 102.000000
E 228 416 99.000000
E 229 261 101.000000
E 229 289 100.000000
E 229 508 94.000000
E 229 541 101.000000
E 229 542 91.000000
E 231 302 104.000000
E 231 368 96.000000
E 231 475 105.000000
E 231 630 99.000000
E 232 287 93.000000
E 232 334 109.000000
E 232 362 99.000000
E 232 375 102.000000
E 232 393 104.000000
E 232 434 108.000000
E 232 618 99.000000
E 233 265 95.000000
E 233 445 97.000000
E 234 374 104.000000
E 234 506 97.000000
E 236 306 99.000000
E 236 350 103.000000
E 236 403 95.000000
E 236 530 102.000000
E 237 583 109.000000
E 238 243 98.000000
E 238 447 96.000000
E 239 388 89.000000
E 240 446 96.000000
E 240 616 107.000000
E 241 268 101.000000
E 241 299 98.000000
E 241 487 97.000000
E 241 573 104.000000
E 242 266 97.000000
E 242 303 108.000000
E 242 393 105.000000
E 242 427 98.000000
E 242 481 104.000000
E 242 508 103.000000
E 242 560 110.000000
E 243 260 104.000000
E 243 392 95.000000
E 243 413 102.000000
E 243 525 94.000000
E 244 356 91.000000
E 244 441 98.000000
E 244 483 104.000000
E 244 621 96.000000
E 245 328 94.000000
E 245 337 95.000000
E 245 436 102.000000
E 245 505 95.000000
E 245 579 97.000000
E 246 274 98.000000
E 246 498 95.000000
E 246 517 103.000000
E 246 530 98.000000
E 247 384 100.000000
E 247 395 103.000000
E 247 541 109.000000
E 247 592 101.000000
E 248 422 97.000000
E 249 404 95.000000
E 249 563 113.000000
E 249 572 103.000000
E 250 437 91.000000
E 250 536 101.000000
E 250 576 89.000000
E 250 584 102.000000
E 250 587 102.000000
E 250 605 102.000000
E 251 543 98.000000
E 251 618 102.000000
E 251 632 105.000000
E 252 458 98.000000
E 253 308 107.000000
E 253 336 105.000000
E 254 289 92.000000
E 254 333 106.000000
E 254 544 93.000000
E 254 627 93.000000
E 255 468 99.000000
E 255 557 90.000000
E 256 282 89.000000
E 257 445 104.000000
E 257 501 99.000000
E 257 538 93.000000
E 258 333 100.000000
E 258 560 103.000000
E 259 262 102.000000
E 259 316 99.000000
E 259 323 89.000000
E 259 359 94.000000
E 260 493 109.000000
E 260 575 92.000000
E 262 296 92.000000
E 262 311 98.000000
E 262 615 96.000000
E 263 501 99.000000
E 264 291 100.000000
E 264 489 93.000000
E 264 580 91.000000
E 265 267 107.000000
E 265 439 88.000000
E 265 454 93.000000
E 265 511 99.000000
E 266 414 100.000000
E 266 468 98.000000
E 266 521 94.000000
E 266 559 106.000000
E 266 563 101.000000
E 266 590 94.000000
E 267 541 97.000000
E 267 599 98.000000
E 268 392 105.000000
E 268 439 104.000000
E 268 603 103.000000
E 268 623 112.000000
E 269 353 94.000000
E 269 529 91.000000
E 269 531 90.000000
E 270 368 104.000000
E 270 415 102.000000
E 270 590 100.000000
E 270 591 95.000000
E 271 316 95.000000
E 271 524 95.000000
E 272 303 93.000000
E 272 318 105.000000
E 273 338 88.000000
E 274 412 110.000000
E 275 350 114.000000
E 276 317 111.000000
E 277 307 107.000000
E 277 323 95.000000
E 277 354 105.000000
E 278 391 98.000000
E 279 301 99.000000
E 279 475 93.000000
E 279 514 98.000000
E 280 319 103.000000
E 280 427 98.000000
E 280 580 96.000000
E 281 288 97.000000
E 281 574 100.000000
E 282 480 92.000000
E 282 535 101.000000
E 283 353 106.000000
E 283 465 98.000000
E 284 538 92.000000
E 285 335 105.000000
E 285 403 103.000000
E 285 578 87.000000
E 286 333 93.000000
E 286 355 108.000000
E 286 561 103.000000
E 287 590 104.000000
E 288 339 96.000000
E 288 453 102.000000
E 289 362 109.000000
E 289 517 96.000000
E 289 523 95.000000
E 289 541 103.000000
E 292 314 101.000000
E 292 403 102.000000
E 293 412 96.000000
E 293 427 102.000000
E 294 415 102.000000
E 295 400 114.000000
E 295 569 98.000000
E 296 317 106.000000
E 296 320 98.000000
E 296 442 99.000000
E 296 633 111.000000
E 297 358 96.000000
E 297 605 100.000000
E 298 358 104.000000
E 298 616 97.000000
E 300 444 100.000000
E 300 566 101.000000
E 300 623 105.000000
E 301 620 101.000000
E 301 638 99.000000
E 302 494 91.000000
E 303 319 100.000000
E 304 508 98.000000
E 304 598 107.000000
E 305 379 100.000000
E 305 474 97.000000
E 306 321 102.000000
E 307 379 103.000000
E 307 421 102.000000
E 307 614 101.000000
E 308 401 103.000000
E 308 402 99.000000
E 308 568 101.000000
E 308 596 107.000000
E 309 456 104.000000
E 309 549 104.000000
E 309 634 106.000000
E 310 443 102.000000
E 310 496 97.000000
E 311 315 100.000000
E 312 441 111.000000
E 312 463 96.000000
E 312 514 94.000000
E 312 521 100.000000
E 313 416 97.000000
E 313 425 96.000000
E 313 506 105.000000
E 314 351 95.000000
E 316 434 105.000000
E 317 327 101.000000
E 317 504 102.000000
E 317 588 95.000000
E 318 428 113.000000
E 318 566 100.000000
E 318 573 101.000000
E 319 324 105.000000
E 320 471 106.000000
E 321 605 107.000000
E 322 358 106.000000
E 324 368 104.000000
E 324 605 103.000000
E 325 435 103.000000
E 325 482 105.000000
E 326 586 93.000000
E 329 360 95.000000
E 329 587 105.000000
E 330 506 94.000000
E 331 506 103.000000
E 331 507 100.000000
E 332 399 95.000000
E 332 402 99.000000
E 332 403 98.000000
E 332 514 96.000000
E 332 517 100.000000
E 332 562 100.000000
E 332 617 101.000000
E 333 344 101.000000
E 333 347 100.000000
E 333 375 102.000000
E 333 465 94.000000
E 333 512 100.000000
E 333 543 97.000000
E 333 547 104.000000
E 334 500 94.000000
E 334 553 96.000000
E 335 344 105.000000
E 335 415 102.000000
E 335 555 107.000000
E 336 392 99.000000
E 336 423 92.000000
E 336 469 105.000000
E 336 495 95.000000
E 336 596 108.000000
E 338 506 96.000000
E 339 621 95.000000
E 340 451 93.000000
E 340 549 101.000000
E 341 463 100.000000
E 341 484 102.000000
E 341 601 107.000000
E 342 602 93.000000
E 343 363 108.000000
E 343 448 101.000000
E 343 467 88.000000
E 343 529 102.000000
E 343 596 100.000000
E 344 396 97.000000
E 344 409 99.000000
E 344 475 102.000000
E 345 361 93.000000
E 346 607 94.000000
E 347 482 91.000000
E 348 365 102.000000
E 348 366 101.000000
E 348 417 101.000000
E 348 455 95.000000
E 348 469 97.000000
E 348 611 96.000000
E 349 390 98.000000
E 350 407 107.000000
E 350 435 94.000000
E 350 640 115.000000
E 351 619 86.000000
E 352 517 106.000000
E 352 576 98.000000
E 354 422 102.000000
E 354 444 100.000000
E 354 447 107.000000
E 354 485 101.000000
E 354 501 96.000000
E 354 537 93.000000
E 354 588 99.000000
E 355 427 100.000000
E 355 513 96.000000
E 355 530 97.000000
E 355 628 99.000000
E 356 470 87.000000
E 356 517 104.000000
E 356 583 96.000000
E 357 482 97.000000
E 358 367 107.000000
E 358 408 100.000000
E 358 506 106.000000
E 360 361 99.000000
E 361 385 105.000000
E 361 473 99.000000
E 361 562 97.000000
E 361 575 101.000000
E 362 364 97.000000
E 362 491 103.000000
E 363 405 94.000000
E 363 544 98.000000
E 363 600 97.000000
E 363 618 99.000000
E 364 430 107.000000
E 364 485 106.000000
E 364 516 99.000000
E 364 546 98.000000
E 365 448 104.000000
E 365 599 109.000000
E 365 617 96.000000
E 366 452 106.000000
E 367 531 100.000000
E 368 618 111.000000
E 368 632 100.000000
E 369 548 95.000000
E 369 578 97.000000
E 369 591 98.000000
E 370 400 99.000000
E 370 605 95.000000
E 371 479 97.000000
E 371 550 104.000000
E 373 434 99.000000
E 373 465 96.000000
E 374 479 99.000000
E 375 391 101.000000
E 376 632 99.000000
E 377 483 97.000000
E 377 542 99.000000
E 378 389 93.000000
E 378 477 96.000000
E 378 580 100.000000
E 378 585 92.000000
E 378 635 100.000000
E 380 478 101.000000
E 380 598 94.000000
E 381 423 102.000000
E 381 546 102.000000
E 382 432 100.000000
E 382 575 102.000000
E 383 482 99.000000
E 384 397 97.000000
E 384 420 98.000000
E 386 411 105.000000
E 386 498 101.000000
E 386 577 99.000000
E 387 615 100.000000
E 389 499 102.000000
E 390 616 98.000000
E 391 588 100.000000
E 391 623 108.000000
E 392 410 97.000000
E 392 428 98.000000
E 392 587 104.000000
E 393 416 101.000000
E 393 509 104.000000
E 394 422 100.000000
E 394 435 94.000000
E 394 587 105.000000
E 395 432 101.000000
E 398 400 101.000000
E 398 572 97.000000
E 399 464 106.000000
E 400 541 106.000000
E 400 544 98.000000
E 401 594 101.000000
E 403 446 98.000000
E 404 566 108.000000
E 405 522 98.000000
E 405 523 94.000000
E 406 563 102.000000
E 407 609 96.000000
E 408 539 100.000000
E 408 556 102.000000
E 410 427 98.000000
E 412 416 101.000000
E 412 617 96.000000
E 413 577 98.000000
E 414 549 99.000000
E 415 571 100.000000
E 415 596 95.000000
E 416 426 94.000000
E 416 454 92.000000
E 416 557 93.000000
E 417 466 111.000000
E 417 638 98.000000
E 419 554 99.000000
E 420 483 100.000000
E 420 561 109.000000
E 420 562 98.000000
E 420 566 104.000000
E 422 602 108.000000
E 424 436 98.000000
E 424 632 108.000000
E 426 430 94.000000
E 426 458 105.000000
E 427 498 104.000000
E 427 522 107.000000
E 427 558 95.000000
E 427 566 102.000000
E 427 593 93.000000
E 427 631 113.000000
E 428 567 95.000000
E 429 549 99.000000
E 430 470 107.000000
E 431 512 103.000000
E 431 514 95.000000
E 431 542 100.000000
E 432 459 94.000000
E 432 588 100.000000
E 433 481 98.000000
E 434 529 106.000000
E 434 621 106.000000
E 435 497 96.000000
E 435 606 97.000000
E 436 620 97.000000
E 437 558 97.000000
E 438 461 97.000000
E 438 587 102.000000
E 439 483 93.000000
E 440 544 97.000000
E 442 636 97.000000
E 443 582 98.000000
E 443 615 92.000000
E 446 466 92.000000
E 446 495 101.000000
E 446 580 97.000000
E 447 486 98.000000
E 447 531 93.000000
E 448 487 94.000000
E 448 493 102.000000
E 448 549 97.000000
E 448 583 98.000000
E 448 618 102.000000
E 449 634 89.000000
E 450 551 109.000000
E 450 595 92.000000
E 452 483 93.000000
E 452 589 94.000000
E 453 639 98.000000
E 455 470 107.000000
E 455 547 107.000000
E 456 585 95.000000
E 457 493 103.000000
E 457 521 97.000000
E 459 467 102.000000
E 460 569 102.000000
E 461 482 101.000000
E 461 556 99.000000
E 462 605 104.000000
E 462 621 91.000000
E 463 553 96.000000
E 465 489 107.000000
E 465 584 101.000000
E 468 489 108.000000
E 468 578 101.000000
E 470 499 103.000000
E 471 482 102.000000
E 471 616 109.000000
E 472 496 94.000000
E 472 574 104.000000
E 473 596 103.000000
E 475 590 99.000000
E 475 615 106.000000
E 475 631 101.000000
E 476 507 93.000000
E 478 493 100.000000
E 478 625 101.000000
E 479 503 100.000000
E 479 509 89.000000
E 479 600 106.000000
E 480 524 98.000000
E 481 549 109.000000
E 481 575 99.000000
E 483 522 95.000000
E 483 553 105.000000
E 483 573 97.000000
E 483 580 100.000000
E 483 639 105.000000
E 485 574 102.000000
E 486 521 101.000000
E 486 534 97.000000
E 487 490 103.000000
E 487 634 92.000000
E 488 515 96.000000
E 489 579 93.000000
E 489 616 108.000000
E 490 499 95.000000
E 491 608 104.000000
E 492 525 99.000000
E 494 496 97.000000
E 494 586 101.000000
E 494 635 101.000000
E 495 631 94.000000
E 496 506 95.000000
E 496 531 99.000000
E 496 610 107.000000
E 500 516 101.000000
E 501 567 97.000000
E 501 575 95.000000
E 506 622 98.000000
E 507 512 105.000000
E 507 516 96.000000
E 508 564 109.000000
E 509 633 103.000000
E 510 550 103.000000
E 511 639 101.000000
E 514 571 98.000000
E 514 612 97.000000
E 517 613 92.000000
E 519 532 99.000000
E 519 550 95.000000
E 519 554 96.000000
E 519 613 98.000000
E 520 571 105.000000
E 521 542 97.000000
E 524 590 101.000000
E 524 599 103.000000
E 524 617 97.000000
E 525 593 94.000000
E 526 529 99.000000
E 526 538 98.000000
E 527 561 104.000000
E 528 541 98.000000
E 528 559 108.000000
E 533 580 102.000000
E 533 597 100.000000
E 534 574 101.000000
E 535 584 105.000000
E 541 557 93.000000
E 543 580 102.000000
E 543 597 105.000000
E 544 553 93.000000
E 546 556 103.000000
E 548 575 103.000000
E 549 563 96.000000
E 550 627 108.000000
E 555 570 104.000000
E 556 639 107.000000
E 558 635 96.000000
E 558 640 100.000000
E 562 565 97.000000
E 563 579 102.000000
E 563 637 106.000000
E 564 627 92.000000
E 566 591 104.000000
E 570 632 102.000000
E 572 600 92.000000
E 574 633 91.000000
E 581 598 99.000000
E 581 615 96.000000
E 582 596 99.000000
E 585 593 100.000000
E 588 595 98.000000
E 591 622 90.000000
E 591 623 104.000000
E 593 601 97.000000
E 593 621 96.000000
E 597 606 104.000000
E 606 607 98.000000
E 608 633 98.000000
END

SECTION Terminals
Terminals 25
TP 1 196.000000
TP 2 628.000000
TP 3 16.000000
TP 4 428.000000
TP 5 284.000000
TP 6 548.000000
TP 7 360.000000
TP 8 676.000000
TP 9 1068.000000
TP 10 1112.000000
TP 11 20.000000
TP 12 512.000000
TP 13 748.000000
TP 14 1172.000000
TP 15 712.000000
TP 16 112.000000
TP 17 1176.000000
TP 18 452.000000
TP 19 124.000000
TP 20 320.000000
TP 21 640.000000
TP 22 464.000000
TP 23 40.000000
TP 24 560.000000
TP 25 212.000000
END

EOF
